54 22 72 10 85 81 58 91 59 94 84 52 56 12 78 32 61 88 63 25 33 26 70 21 41 39 96 2 35 1 45 51 3 57 16 38 28 73 82 65 6 29 66 36 11 46 13 64 47 75 20 0 53 83 40 93 95 79 90 9 17 80 18 77 69 19 43 92 23 71 37 24 50 4 44 49 62 76 42 86 89 60 34 27 7 97 5 87 67 68 98 14 55 74 15 31 30 99 48 8 

